NAME : TSP_INST.8078952.tour
COMMENT : Length = 8078952
COMMENT : Found by LKH [Keld Helsgaun] Sat Oct 18 11:07:54 2025
TYPE : TOUR
DIMENSION : 100
TOUR_SECTION
1
4
19
70
12
57
80
21
3
14
63
77
20
64
87
45
81
71
69
85
83
65
50
84
89
7
93
72
66
41
96
98
54
38
10
100
68
67
88
25
40
92
62
94
23
52
39
90
55
73
91
60
86
26
99
59
82
33
95
5
8
15
36
74
53
9
28
78
27
47
61
46
34
16
29
56
43
11
24
30
97
42
17
13
18
49
79
58
51
44
2
37
22
6
76
48
31
75
35
32
-1
EOF
